language ESSENCE' 1.0
letting w be 6
letting n be 54
letting noCrates be 1
letting noGoals be 1
letting pInit be 9
letting stps be 8
letting crates be [14]
letting goals be [7]
letting noWalls be 26
letting walls be [0, 1, 2, 3, 4, 5, 6, 11, 12, 17, 18, 23, 24, 29, 30, 35, 36, 41, 42, 47, 48, 49, 50, 51, 52, 53]